* (set-logic QF_BV)
* (set-info :smt-lib-version 2.6)
* (set-info :category "crafted")
* (set-info :status unsat)
* (declare-fun v0 () (_ BitVec 16))
* (assert (and
* 	 (bvult v0 (_ bv3 16))
* 	 (bvult (_ bv2 16) v0)))
* (check-sat)
* (exit)
* unsat
* #variable= 48 #constraint= 34
+1 x32 = 0;
+1 x31 = 0;
+1 x30 = 0;
+1 x29 = 0;
+1 x17 +2 x18 +4 x19 +8 x20 +16 x21 +32 x22 +64 x23 +128 x24 +256 x25 +512 x26 +1024 x27 +2048 x28 +4096 x29 +8192 x30 +16384 x31 +32768 x32 -1 x1 -2 x2 -4 x3 -8 x4 -16 x5 -32 x6 -64 x7 -128 x8 -256 x9 -512 x10 -1024 x11 -2048 x12 -4096 x13 -8192 x14 -16384 x15 -32768 x16 >= 1;
+1 x25 = 0;
+1 x17 = 1;
+1 x18 = 1;
+1 x19 = 0;
+1 x20 = 0;
+1 x21 = 0;
+1 x22 = 0;
+1 x23 = 0;
+1 x24 = 0;
+1 x26 = 0;
+1 x27 = 0;
+1 x28 = 0;
+1 x48 = 0;
+1 x47 = 0;
+1 x46 = 0;
+1 x45 = 0;
+1 x40 = 0;
+1 x33 = 0;
+1 x34 = 1;
+1 x35 = 0;
+1 x36 = 0;
+1 x1 +2 x2 +4 x3 +8 x4 +16 x5 +32 x6 +64 x7 +128 x8 +256 x9 +512 x10 +1024 x11 +2048 x12 +4096 x13 +8192 x14 +16384 x15 +32768 x16 -1 x33 -2 x34 -4 x35 -8 x36 -16 x37 -32 x38 -64 x39 -128 x40 -256 x41 -512 x42 -1024 x43 -2048 x44 -4096 x45 -8192 x46 -16384 x47 -32768 x48 >= 1;
+1 x37 = 0;
+1 x38 = 0;
+1 x39 = 0;
+1 x41 = 0;
+1 x42 = 0;
+1 x43 = 0;
+1 x44 = 0;
